
Gurobi 11.0.3 (linux64) logging started Sun Nov 24 22:14:45 2024

Set parameter LogFile to value "/home/yihong/Coding/OR_SUC/SUC_results_bigM100000_thread4/case24_ieee_rts_theta0.1_epsilon0.05_gurobi_seed1400000_num_gen100_N_WDR100_load_scaling_factor1_proposed_T28quadra_cost.txt"
Set parameter TimeLimit to value 3600
Gurobi Optimizer version 11.0.3 build v11.0.3rc0 (linux64 - "Ubuntu 20.04.6 LTS")

CPU model: AMD EPYC 7532 32-Core Processor, instruction set [SSE2|AVX|AVX2]
Thread count: 64 physical cores, 128 logical processors, using up to 4 threads

Optimize a model with 67234 rows, 34821 columns and 1535514 nonzeros
Model fingerprint: 0x87a333fc
Model has 2800 quadratic constraints
Variable types: 32021 continuous, 2800 integer (2800 binary)
Coefficient statistics:
  Matrix range     [3e-04, 2e+03]
  QMatrix range    [2e-03, 8e-03]
  QLMatrix range   [3e-01, 6e+01]
  Objective range  [1e+00, 1e+00]
  Bounds range     [1e+00, 1e+00]
  RHS range        [1e+00, 9e+03]
Presolve removed 54991 rows and 14779 columns
Presolve time: 0.48s
Presolved: 12243 rows, 20042 columns, 68912 nonzeros
Presolved model has 2800 quadratic constraint(s)
Variable types: 17242 continuous, 2800 integer (2800 binary)

Root relaxation: objective 3.910319e+04, 9564 iterations, 0.31 seconds (0.45 work units)

    Nodes    |    Current Node    |     Objective Bounds      |     Work
 Expl Unexpl |  Obj  Depth IntInf | Incumbent    BestBd   Gap | It/Node Time

     0     0 39103.1876    0    -          - 39103.1876      -     -    1s
     0     0 335528.784    0  923          - 335528.784      -     -    1s
     0     0 650782.817    0  866          - 650782.817      -     -    2s
     0     0 650851.296    0  515          - 650851.296      -     -    2s
     0     0 651223.355    0  346          - 651223.355      -     -    2s
     0     0 651225.161    0  346          - 651225.161      -     -    2s
     0     0 651226.628    0  346          - 651226.628      -     -    2s
     0     2 651226.628    0  346          - 651226.628      -     -    4s
    11    16 651235.547    4  331          - 651235.547      -  60.5    5s
H  665   540                    651854.21856 651279.529  0.09%  13.9    8s
*  665   540             206    651854.21856 651279.529  0.09%  13.9    8s

Cutting planes:
  Gomory: 100
  Implied bound: 574
  MIR: 101
  Flow cover: 157
  RLT: 360

Explored 841 nodes (38424 simplex iterations) in 9.46 seconds (13.45 work units)
Thread count was 4 (of 128 available processors)

Solution count 2: 651854 651854 

Optimal solution found (tolerance 1.00e-03)
Warning: max constraint violation (6.4177e-07) exceeds tolerance
Best objective 6.518542185579e+05, best bound 6.512795289776e+05, gap 0.0882%
